
  14    0


   0   8 2 3 4 5 10 11 12 13 
   5   2 9 8 
   4   2 7 6 
  10   1 7 
   2   1 6 
   7   1 14
   2   1 14
   3   1 14
   5   1 14
   1   1 14
   2   1 14
   6   1 14
   2   1 14
   0   0 
